(declare-fun c () String)
(declare-fun g () String)
(declare-fun d () String)
(declare-fun f () String)
(declare-fun a () String)
(assert (= (str.++ "bcc" f) (str.++ "a" f a "e" d "a")))
(assert (= (str.++ d "b" c) (str.++ "d" g "db")))
(assert (= (str.++ a g c "d") "c"))

(check-sat)
